c This is an instance of the exact track of PACE 2020 Challenge, see https://pacechallenge.org/2020/ 
c TYPE: planted 
c ORIGIN: PACE 2020 
c DESCRIPTION: A random tree with some added random edges that go bottom-up the optimal treedepth decomposition 
p tdp 20 39
19 12
2 3
4 19
2 16
14 13
18 17
4 2
14 19
1 18
1 5
19 20
6 8
1 3
19 18
7 5
11 2
1 17
1 10
1 12
16 3
19 11
14 12
2 10
17 20
1 7
1 11
18 20
15 17
19 17
1 16
19 16
11 10
9 7
1 14
1 9
1 15
1 2
14 8
19 15
